sing20220917.00
TTAA  67001 48698
99007 27837 21503 00100 27226 21506 92783 21827 18512
85516 17847 19514 70161 09840 30508 50588 05934 11008
40759 15357 09008 30970 31757 10021 25095 41735 08533
20242 54758 09547 15420 68958 08076 10658 76162 31512
88999
77139 08597 43372=
TTCC  67001 48698
70863 71369 08541 50069 64583 29023 30390 56785 28539
20651 53385 26543 10103 46587 27051
88922 78763 02021 88497 64783 29025
77999=
TTDD  6700/ 48698
11922 78763 22746 77364 33726 73168 44680 71569 55620 61183
66577 59984 77497 64783 88399 59984 99383 56185 11359 54585
22327 56984 33253 52386 44229 54585 55148 49386 66124 50386
77108 45987 88076 43988
21212 11920 02021 22814 09014 33706 08539 44653 10551 55608
08512 66578 32008 77569 30012 88499 29023 99454 31508 11439
28014 22424 27025 33396 31514 44374 26523 55328 26537 66308
28539 77253 26551 88237 27537 99192 26545 11153 28518 22113
29518 33103 27045 44076 30021=
